\ENCODING=ISO-8859-1
\Problem name: IloCplex

Minimize
 obj: 6 x1 + 6.2 x2 + 7.2 x3 + 7.4 x4 + 15 x5 + 15.4 x6 + 18 x7 + 18.4 x8
      + 11 x9 + 11.2 x10 + 13.2 x11 + 13.4 x12 + 14 x13 + 14.3 x14 + 16.8 x15
      + 17.1 x16 + x17
Subject To
 c1:  0.03 x1 + 0.03 x2 + 0.15 x5 + 0.15 x6 + 0.05 x9 + 0.05 x10 + 0.1 x13
      + 0.1 x14 <= 400
 c2:  0.06 x1 + 0.06 x2 + 0.12 x5 + 0.12 x6 + 0.1 x13 + 0.1 x14 <= 400
 c3:  0.05 x1 + 0.05 x2 + 0.05 x3 + 0.05 x4 + 0.1 x5 + 0.1 x6 + 0.1 x7 + 0.1 x8
      + 0.05 x9 + 0.05 x10 + 0.05 x11 + 0.05 x12 + 0.12 x13 + 0.12 x14
      + 0.12 x15 + 0.12 x16 <= 500
 c4:  0.04 x1 + 0.04 x3 + 0.2 x5 + 0.2 x7 + 0.03 x9 + 0.03 x11 + 0.12 x13
      + 0.12 x15 <= 450
 c5:  0.02 x1 + 0.02 x2 + 0.02 x3 + 0.02 x4 + 0.06 x5 + 0.06 x6 + 0.06 x7
      + 0.06 x8 + 0.02 x9 + 0.02 x10 + 0.02 x11 + 0.02 x12 + 0.05 x13
      + 0.05 x14 + 0.05 x15 + 0.05 x16 <= 400
 c6:  0.04 x2 + 0.04 x4 + 0.2 x6 + 0.2 x8 + 0.03 x10 + 0.03 x12 + 0.12 x14
      + 0.12 x16 <= 100
 c7:  2 x5 + 2 x6 + 1.2 x13 + 1.2 x14 <= 2000
 c8:  x1 + x2 + x3 + x4  = 3000
 c9:  x5 + x6 + x7 + x8  = 500
 c10: x9 + x10 + x11 + x12  = 1000
 c11: x13 + x14 + x15 + x16  = 2000
Bounds
 0 <= x1 <= 1000000
 0 <= x2 <= 1000000
 0 <= x3 <= 1000000
 0 <= x4 <= 1000000
 0 <= x5 <= 1000000
 0 <= x6 <= 1000000
 0 <= x7 <= 1000000
 0 <= x8 <= 1000000
 0 <= x9 <= 1000000
 0 <= x10 <= 1000000
 0 <= x11 <= 1000000
 0 <= x12 <= 1000000
 0 <= x13 <= 1000000
 0 <= x14 <= 1000000
 0 <= x15 <= 1000000
 0 <= x16 <= 1000000
      x17 = 0
Generals
 x1  x2  x3  x4  x5  x6  x7  x8  x9  x10  x11  x12  x13  x14  x15  x16 
End
